result&benchmarks/Data/Ex1/verify/Output/68-longjmp_04-counting-local_unknown_1_neg_process_dc_iter1Output/Counterexample.1.txt
none:	N36 -{INIT GLOBAL VARS}-> N65
/usr/include/x86_64-linux-gnu/bits/setjmp.h, line 31:	N65 -{typedef long int __jmp_buf[8];}-> N66
/usr/include/x86_64-linux-gnu/bits/types/__sigset_t.h, lines 5-8:	N66 -{struct __anon_type___sigset_t {   unsigned long int __val[32UL]; } ;}-> N67
/usr/include/x86_64-linux-gnu/bits/types/__sigset_t.h, lines 5-8:	N67 -{typedef struct __anon_type___sigset_t __sigset_t;}-> N68
/usr/include/x86_64-linux-gnu/bits/types/struct___jmp_buf_tag.h, lines 26-35:	N68 -{struct __jmp_buf_tag {   __jmp_buf __jmpbuf;   int __mask_was_saved;   __sigset_t __saved_mask; } ;}-> N69
/usr/include/setjmp.h, line 32:	N69 -{typedef struct __jmp_buf_tag jmp_buf[1];}-> N70
/usr/include/setjmp.h, line 36:	N70 -{int setjmp(jmp_buf __env);}-> N71
/usr/include/setjmp.h, line 41:	N71 -{int __sigsetjmp(struct __jmp_buf_tag __env[1], int __savemask);}-> N72
/usr/include/setjmp.h, line 45:	N72 -{int _setjmp(struct __jmp_buf_tag __env[1]);}-> N73
/usr/include/setjmp.h, lines 54-55:	N73 -{void longjmp(struct __jmp_buf_tag __env[1], int __val);}-> N74
/usr/include/setjmp.h, lines 61-62:	N74 -{void _longjmp(struct __jmp_buf_tag __env[1], int __val);}-> N75
/usr/include/setjmp.h, line 70:	N75 -{typedef struct __jmp_buf_tag sigjmp_buf[1];}-> N76
/usr/include/setjmp.h, lines 80-81:	N76 -{void siglongjmp(sigjmp_buf __env, int __val);}-> N77
/usr/include/assert.h, lines 69-71:	N77 -{void __assert_fail(const char *__assertion, const char *__file, unsigned int __line, const char *__function);}-> N78
/usr/include/assert.h, lines 74-76:	N78 -{void __assert_perror_fail(int __errnum, const char *__file, unsigned int __line, const char *__function);}-> N79
/usr/include/assert.h, lines 81-82:	N79 -{void __assert(const char *__assertion, const char *__file, int __line);}-> N80
/usr/lib/gcc/x86_64-linux-gnu/11/include/stddef.h, line 209:	N80 -{typedef unsigned long int size_t;}-> N81
/usr/lib/gcc/x86_64-linux-gnu/11/include/stddef.h, line 321:	N81 -{typedef int wchar_t;}-> N82
/usr/include/stdlib.h, lines 59-63:	N82 -{struct __anon_type_div_t {   int quot;   int rem; } ;}-> N83
/usr/include/stdlib.h, lines 59-63:	N83 -{typedef struct __anon_type_div_t div_t;}-> N84
/usr/include/stdlib.h, lines 67-71:	N84 -{struct __anon_type_ldiv_t {   long int quot;   long int rem; } ;}-> N85
/usr/include/stdlib.h, lines 67-71:	N85 -{typedef struct __anon_type_ldiv_t ldiv_t;}-> N86
/usr/include/stdlib.h, lines 77-81:	N86 -{struct __anon_type_lldiv_t {   long long int quot;   long long int rem; } ;}-> N87
/usr/include/stdlib.h, lines 77-81:	N87 -{typedef struct __anon_type_lldiv_t lldiv_t;}-> N88
/usr/include/stdlib.h, line 98:	N88 -{size_t __ctype_get_mb_cur_max();}-> N89
/usr/include/stdlib.h, lines 102-103:	N89 -{double atof(const char *__nptr);}-> N90
/usr/include/stdlib.h, lines 105-106:	N90 -{int atoi(const char *__nptr);}-> N91
/usr/include/stdlib.h, lines 108-109:	N91 -{long int atol(const char *__nptr);}-> N92
/usr/include/stdlib.h, lines 113-114:	N92 -{long long int atoll(const char *__nptr);}-> N93
/usr/include/stdlib.h, lines 118-120:	N93 -{double strtod(const char *__nptr, char **__endptr);}-> N94
/usr/include/stdlib.h, lines 124-125:	N94 -{float strtof(const char *__nptr, char **__endptr);}-> N95
/usr/include/stdlib.h, lines 127-129:	N95 -{long double strtold(const char *__nptr, char **__endptr);}-> N96
/usr/include/stdlib.h, lines 177-179:	N96 -{long int strtol(const char *__nptr, char **__endptr, int __base);}-> N97
/usr/include/stdlib.h, lines 181-183:	N97 -{unsigned long int strtoul(const char *__nptr, char **__endptr, int __base);}-> N98
/usr/include/stdlib.h, lines 188-190:	N98 -{long long int strtoq(const char *__nptr, char **__endptr, int __base);}-> N99
/usr/include/stdlib.h, lines 193-195:	N99 -{unsigned long long int strtouq(const char *__nptr, char **__endptr, int __base);}-> N100
/usr/include/stdlib.h, lines 201-203:	N100 -{long long int strtoll(const char *__nptr, char **__endptr, int __base);}-> N101
/usr/include/stdlib.h, lines 206-208:	N101 -{unsigned long long int strtoull(const char *__nptr, char **__endptr, int __base);}-> N102
/usr/include/stdlib.h, line 386:	N102 -{char *l64a(long int __n);}-> N103
/usr/include/stdlib.h, lines 389-390:	N103 -{long int a64l(const char *__s);}-> N104
/usr/include/x86_64-linux-gnu/bits/types.h, line 31:	N104 -{typedef unsigned char __u_char;}-> N105
/usr/include/x86_64-linux-gnu/bits/types.h, line 32:	N105 -{typedef unsigned short int __u_short;}-> N106
/usr/include/x86_64-linux-gnu/bits/types.h, line 33:	N106 -{typedef unsigned int __u_int;}-> N107
/usr/include/x86_64-linux-gnu/bits/types.h, line 34:	N107 -{typedef unsigned long int __u_long;}-> N108
/usr/include/x86_64-linux-gnu/bits/types.h, line 37:	N108 -{typedef signed char __int8_t;}-> N109
/usr/include/x86_64-linux-gnu/bits/types.h, line 38:	N109 -{typedef unsigned char __uint8_t;}-> N110
/usr/include/x86_64-linux-gnu/bits/types.h, line 39:	N110 -{typedef signed short int __int16_t;}-> N111
/usr/include/x86_64-linux-gnu/bits/types.h, line 40:	N111 -{typedef unsigned short int __uint16_t;}-> N112
/usr/include/x86_64-linux-gnu/bits/types.h, line 41:	N112 -{typedef signed int __int32_t;}-> N113
/usr/include/x86_64-linux-gnu/bits/types.h, line 42:	N113 -{typedef unsigned int __uint32_t;}-> N114
/usr/include/x86_64-linux-gnu/bits/types.h, line 44:	N114 -{typedef signed long int __int64_t;}-> N115
/usr/include/x86_64-linux-gnu/bits/types.h, line 45:	N115 -{typedef unsigned long int __uint64_t;}-> N116
/usr/include/x86_64-linux-gnu/bits/types.h, line 52:	N116 -{typedef __int8_t __int_least8_t;}-> N117
/usr/include/x86_64-linux-gnu/bits/types.h, line 53:	N117 -{typedef __uint8_t __uint_least8_t;}-> N118
/usr/include/x86_64-linux-gnu/bits/types.h, line 54:	N118 -{typedef __int16_t __int_least16_t;}-> N119
/usr/include/x86_64-linux-gnu/bits/types.h, line 55:	N119 -{typedef __uint16_t __uint_least16_t;}-> N120
/usr/include/x86_64-linux-gnu/bits/types.h, line 56:	N120 -{typedef __int32_t __int_least32_t;}-> N121
/usr/include/x86_64-linux-gnu/bits/types.h, line 57:	N121 -{typedef __uint32_t __uint_least32_t;}-> N122
/usr/include/x86_64-linux-gnu/bits/types.h, line 58:	N122 -{typedef __int64_t __int_least64_t;}-> N123
/usr/include/x86_64-linux-gnu/bits/types.h, line 59:	N123 -{typedef __uint64_t __uint_least64_t;}-> N124
/usr/include/x86_64-linux-gnu/bits/types.h, line 63:	N124 -{typedef long int __quad_t;}-> N125
/usr/include/x86_64-linux-gnu/bits/types.h, line 64:	N125 -{typedef unsigned long int __u_quad_t;}-> N126
/usr/include/x86_64-linux-gnu/bits/types.h, line 72:	N126 -{typedef long int __intmax_t;}-> N127
/usr/include/x86_64-linux-gnu/bits/types.h, line 73:	N127 -{typedef unsigned long int __uintmax_t;}-> N128
/usr/include/x86_64-linux-gnu/bits/types.h, line 145:	N128 -{typedef unsigned long int __dev_t;}-> N129
/usr/include/x86_64-linux-gnu/bits/types.h, line 146:	N129 -{typedef unsigned int __uid_t;}-> N130
/usr/include/x86_64-linux-gnu/bits/types.h, line 147:	N130 -{typedef unsigned int __gid_t;}-> N131
/usr/include/x86_64-linux-gnu/bits/types.h, line 148:	N131 -{typedef unsigned long int __ino_t;}-> N132
/usr/include/x86_64-linux-gnu/bits/types.h, line 149:	N132 -{typedef unsigned long int __ino64_t;}-> N133
/usr/include/x86_64-linux-gnu/bits/types.h, line 150:	N133 -{typedef unsigned int __mode_t;}-> N134
/usr/include/x86_64-linux-gnu/bits/types.h, line 151:	N134 -{typedef unsigned long int __nlink_t;}-> N135
/usr/include/x86_64-linux-gnu/bits/types.h, line 152:	N135 -{typedef long int __off_t;}-> N136
/usr/include/x86_64-linux-gnu/bits/types.h, line 153:	N136 -{typedef long int __off64_t;}-> N137
/usr/include/x86_64-linux-gnu/bits/types.h, line 154:	N137 -{typedef int __pid_t;}-> N138
/usr/include/x86_64-linux-gnu/bits/types.h, line 155:	N138 -{struct __anon_type___fsid_t {   int __val[2]; } ;}-> N139
/usr/include/x86_64-linux-gnu/bits/types.h, line 155:	N139 -{typedef struct __anon_type___fsid_t __fsid_t;}-> N140
/usr/include/x86_64-linux-gnu/bits/types.h, line 156:	N140 -{typedef long int __clock_t;}-> N141
/usr/include/x86_64-linux-gnu/bits/types.h, line 157:	N141 -{typedef unsigned long int __rlim_t;}-> N142
/usr/include/x86_64-linux-gnu/bits/types.h, line 158:	N142 -{typedef unsigned long int __rlim64_t;}-> N143
/usr/include/x86_64-linux-gnu/bits/types.h, line 159:	N143 -{typedef unsigned int __id_t;}-> N144
/usr/include/x86_64-linux-gnu/bits/types.h, line 160:	N144 -{typedef long int __time_t;}-> N145
/usr/include/x86_64-linux-gnu/bits/types.h, line 161:	N145 -{typedef unsigned int __useconds_t;}-> N146
/usr/include/x86_64-linux-gnu/bits/types.h, line 162:	N146 -{typedef long int __suseconds_t;}-> N147
/usr/include/x86_64-linux-gnu/bits/types.h, line 163:	N147 -{typedef long int __suseconds64_t;}-> N148
/usr/include/x86_64-linux-gnu/bits/types.h, line 165:	N148 -{typedef int __daddr_t;}-> N149
/usr/include/x86_64-linux-gnu/bits/types.h, line 166:	N149 -{typedef int __key_t;}-> N150
/usr/include/x86_64-linux-gnu/bits/types.h, line 169:	N150 -{typedef int __clockid_t;}-> N151
/usr/include/x86_64-linux-gnu/bits/types.h, line 172:	N151 -{typedef void *__timer_t;}-> N152
/usr/include/x86_64-linux-gnu/bits/types.h, line 175:	N152 -{typedef long int __blksize_t;}-> N153
/usr/include/x86_64-linux-gnu/bits/types.h, line 180:	N153 -{typedef long int __blkcnt_t;}-> N154
/usr/include/x86_64-linux-gnu/bits/types.h, line 181:	N154 -{typedef long int __blkcnt64_t;}-> N155
/usr/include/x86_64-linux-gnu/bits/types.h, line 184:	N155 -{typedef unsigned long int __fsblkcnt_t;}-> N156
/usr/include/x86_64-linux-gnu/bits/types.h, line 185:	N156 -{typedef unsigned long int __fsblkcnt64_t;}-> N157
/usr/include/x86_64-linux-gnu/bits/types.h, line 188:	N157 -{typedef unsigned long int __fsfilcnt_t;}-> N158
/usr/include/x86_64-linux-gnu/bits/types.h, line 189:	N158 -{typedef unsigned long int __fsfilcnt64_t;}-> N159
/usr/include/x86_64-linux-gnu/bits/types.h, line 192:	N159 -{typedef long int __fsword_t;}-> N160
/usr/include/x86_64-linux-gnu/bits/types.h, line 194:	N160 -{typedef long int __ssize_t;}-> N161
/usr/include/x86_64-linux-gnu/bits/types.h, line 197:	N161 -{typedef long int __syscall_slong_t;}-> N162
/usr/include/x86_64-linux-gnu/bits/types.h, line 199:	N162 -{typedef unsigned long int __syscall_ulong_t;}-> N163
/usr/include/x86_64-linux-gnu/bits/types.h, line 203:	N163 -{typedef __off64_t __loff_t;}-> N164
/usr/include/x86_64-linux-gnu/bits/types.h, line 204:	N164 -{typedef char *__caddr_t;}-> N165
/usr/include/x86_64-linux-gnu/bits/types.h, line 207:	N165 -{typedef long int __intptr_t;}-> N166
/usr/include/x86_64-linux-gnu/bits/types.h, line 210:	N166 -{typedef unsigned int __socklen_t;}-> N167
/usr/include/x86_64-linux-gnu/bits/types.h, line 215:	N167 -{typedef int __sig_atomic_t;}-> N168
/usr/include/x86_64-linux-gnu/sys/types.h, line 33:	N168 -{typedef __u_char u_char;}-> N169
/usr/include/x86_64-linux-gnu/sys/types.h, line 34:	N169 -{typedef __u_short u_short;}-> N170
/usr/include/x86_64-linux-gnu/sys/types.h, line 35:	N170 -{typedef __u_int u_int;}-> N171
/usr/include/x86_64-linux-gnu/sys/types.h, line 36:	N171 -{typedef __u_long u_long;}-> N172
/usr/include/x86_64-linux-gnu/sys/types.h, line 37:	N172 -{typedef __quad_t quad_t;}-> N173
/usr/include/x86_64-linux-gnu/sys/types.h, line 38:	N173 -{typedef __u_quad_t u_quad_t;}-> N174
/usr/include/x86_64-linux-gnu/sys/types.h, line 39:	N174 -{typedef __fsid_t fsid_t;}-> N175
/usr/include/x86_64-linux-gnu/sys/types.h, line 42:	N175 -{typedef __loff_t loff_t;}-> N176
/usr/include/x86_64-linux-gnu/sys/types.h, line 47:	N176 -{typedef __ino_t ino_t;}-> N177
/usr/include/x86_64-linux-gnu/sys/types.h, line 59:	N177 -{typedef __dev_t dev_t;}-> N178
/usr/include/x86_64-linux-gnu/sys/types.h, line 64:	N178 -{typedef __gid_t gid_t;}-> N179
/usr/include/x86_64-linux-gnu/sys/types.h, line 69:	N179 -{typedef __mode_t mode_t;}-> N180
/usr/include/x86_64-linux-gnu/sys/types.h, line 74:	N180 -{typedef __nlink_t nlink_t;}-> N181
/usr/include/x86_64-linux-gnu/sys/types.h, line 79:	N181 -{typedef __uid_t uid_t;}-> N182
/usr/include/x86_64-linux-gnu/sys/types.h, line 85:	N182 -{typedef __off_t off_t;}-> N183
/usr/include/x86_64-linux-gnu/sys/types.h, line 97:	N183 -{typedef __pid_t pid_t;}-> N184
/usr/include/x86_64-linux-gnu/sys/types.h, line 103:	N184 -{typedef __id_t id_t;}-> N185
/usr/include/x86_64-linux-gnu/sys/types.h, line 108:	N185 -{typedef __ssize_t ssize_t;}-> N186
/usr/include/x86_64-linux-gnu/sys/types.h, line 114:	N186 -{typedef __daddr_t daddr_t;}-> N187
/usr/include/x86_64-linux-gnu/sys/types.h, line 115:	N187 -{typedef __caddr_t caddr_t;}-> N188
/usr/include/x86_64-linux-gnu/sys/types.h, line 121:	N188 -{typedef __key_t key_t;}-> N189
/usr/include/x86_64-linux-gnu/bits/types/clock_t.h, line 7:	N189 -{typedef __clock_t clock_t;}-> N190
/usr/include/x86_64-linux-gnu/bits/types/clockid_t.h, line 7:	N190 -{typedef __clockid_t clockid_t;}-> N191
/usr/include/x86_64-linux-gnu/bits/types/time_t.h, line 10:	N191 -{typedef __time_t time_t;}-> N192
/usr/include/x86_64-linux-gnu/bits/types/timer_t.h, line 7:	N192 -{typedef __timer_t timer_t;}-> N193
/usr/include/x86_64-linux-gnu/sys/types.h, line 148:	N193 -{typedef unsigned long int ulong;}-> N194
/usr/include/x86_64-linux-gnu/sys/types.h, line 149:	N194 -{typedef unsigned short int ushort;}-> N195
/usr/include/x86_64-linux-gnu/sys/types.h, line 150:	N195 -{typedef unsigned int uint;}-> N196
/usr/include/x86_64-linux-gnu/bits/stdint-intn.h, line 24:	N196 -{typedef __int8_t int8_t;}-> N197
/usr/include/x86_64-linux-gnu/bits/stdint-intn.h, line 25:	N197 -{typedef __int16_t int16_t;}-> N198
/usr/include/x86_64-linux-gnu/bits/stdint-intn.h, line 26:	N198 -{typedef __int32_t int32_t;}-> N199
/usr/include/x86_64-linux-gnu/bits/stdint-intn.h, line 27:	N199 -{typedef __int64_t int64_t;}-> N200
/usr/include/x86_64-linux-gnu/sys/types.h, line 158:	N200 -{typedef __uint8_t u_int8_t;}-> N201
/usr/include/x86_64-linux-gnu/sys/types.h, line 159:	N201 -{typedef __uint16_t u_int16_t;}-> N202
/usr/include/x86_64-linux-gnu/sys/types.h, line 160:	N202 -{typedef __uint32_t u_int32_t;}-> N203
/usr/include/x86_64-linux-gnu/sys/types.h, line 161:	N203 -{typedef __uint64_t u_int64_t;}-> N204
/usr/include/x86_64-linux-gnu/sys/types.h, line 164:	N204 -{typedef signed int register_t;}-> N205
/usr/include/x86_64-linux-gnu/bits/byteswap.h, lines 33-41:	N205 -{__uint16_t __bswap_16(__uint16_t __bsx);}-> N206
/usr/include/x86_64-linux-gnu/bits/byteswap.h, lines 48-56:	N206 -{__uint32_t __bswap_32(__uint32_t __bsx);}-> N207
/usr/include/x86_64-linux-gnu/bits/byteswap.h, lines 69-77:	N207 -{__uint64_t __bswap_64(__uint64_t __bsx);}-> N208
/usr/include/x86_64-linux-gnu/bits/uintn-identity.h, lines 32-36:	N208 -{__uint16_t __uint16_identity(__uint16_t __x);}-> N209
/usr/include/x86_64-linux-gnu/bits/uintn-identity.h, lines 38-42:	N209 -{__uint32_t __uint32_identity(__uint32_t __x);}-> N210
/usr/include/x86_64-linux-gnu/bits/uintn-identity.h, lines 44-48:	N210 -{__uint64_t __uint64_identity(__uint64_t __x);}-> N211
/usr/include/x86_64-linux-gnu/bits/types/sigset_t.h, line 7:	N211 -{typedef __sigset_t sigset_t;}-> N212
/usr/include/x86_64-linux-gnu/bits/types/struct_timeval.h, lines 8-17:	N212 -{struct timeval {   __time_t tv_sec;   __suseconds_t tv_usec; } ;}-> N213
/usr/include/x86_64-linux-gnu/bits/types/struct_timespec.h, lines 11-31:	N213 -{struct timespec {   __time_t tv_sec;   __syscall_slong_t tv_nsec; } ;}-> N214
/usr/include/x86_64-linux-gnu/sys/select.h, line 43:	N214 -{typedef __suseconds_t suseconds_t;}-> N215
/usr/include/x86_64-linux-gnu/sys/select.h, line 49:	N215 -{typedef long int __fd_mask;}-> N216
/usr/include/x86_64-linux-gnu/sys/select.h, lines 59-70:	N216 -{struct __anon_type_fd_set {   __fd_mask __fds_bits[32]; } ;}-> N217
/usr/include/x86_64-linux-gnu/sys/select.h, lines 59-70:	N217 -{typedef struct __anon_type_fd_set fd_set;}-> N218
/usr/include/x86_64-linux-gnu/sys/select.h, line 77:	N218 -{typedef __fd_mask fd_mask;}-> N219
/usr/include/x86_64-linux-gnu/sys/select.h, lines 102-105:	N219 -{int select(int __nfds, fd_set *__readfds, fd_set *__writefds, fd_set *__exceptfds, struct timeval *__timeout);}-> N220
/usr/include/x86_64-linux-gnu/sys/select.h, lines 127-131:	N220 -{int pselect(int __nfds, fd_set *__readfds, fd_set *__writefds, fd_set *__exceptfds, const struct timespec *__timeout, const __sigset_t *__sigmask);}-> N221
/usr/include/x86_64-linux-gnu/sys/types.h, line 185:	N221 -{typedef __blksize_t blksize_t;}-> N222
/usr/include/x86_64-linux-gnu/sys/types.h, line 192:	N222 -{typedef __blkcnt_t blkcnt_t;}-> N223
/usr/include/x86_64-linux-gnu/sys/types.h, line 196:	N223 -{typedef __fsblkcnt_t fsblkcnt_t;}-> N224
/usr/include/x86_64-linux-gnu/sys/types.h, line 200:	N224 -{typedef __fsfilcnt_t fsfilcnt_t;}-> N225
/usr/include/x86_64-linux-gnu/bits/atomic_wide_counter.h, lines 28-32:	N225 -{struct __anon_type_0 {   unsigned int __low;   unsigned int __high; } ;}-> N226
/usr/include/x86_64-linux-gnu/bits/atomic_wide_counter.h, lines 25-33:	N226 -{union __anon_type___atomic_wide_counter {   unsigned long long int __value64;   struct __anon_type_0 __value32; } ;}-> N227
/usr/include/x86_64-linux-gnu/bits/atomic_wide_counter.h, lines 25-33:	N227 -{typedef union __anon_type___atomic_wide_counter __atomic_wide_counter;}-> N228
/usr/include/x86_64-linux-gnu/bits/thread-shared-types.h, lines 51-55:	N228 -{struct __pthread_internal_list {   struct __pthread_internal_list *__prev;   struct __pthread_internal_list *__next; } ;}-> N229
/usr/include/x86_64-linux-gnu/bits/thread-shared-types.h, lines 51-55:	N229 -{typedef struct __pthread_internal_list __pthread_list_t;}-> N230
/usr/include/x86_64-linux-gnu/bits/thread-shared-types.h, lines 57-60:	N230 -{struct __pthread_internal_slist {   struct __pthread_internal_slist *__next; } ;}-> N231
/usr/include/x86_64-linux-gnu/bits/thread-shared-types.h, lines 57-60:	N231 -{typedef struct __pthread_internal_slist __pthread_slist_t;}-> N232
/usr/include/x86_64-linux-gnu/bits/struct_mutex.h, lines 22-53:	N232 -{struct __pthread_mutex_s {   int __lock;   unsigned int __count;   int __owner;   unsigned int __nusers;   int __kind;   short __spins;   short __elision;   __pthread_list_t __list; } ;}-> N233
/usr/include/x86_64-linux-gnu/bits/struct_rwlock.h, lines 23-55:	N233 -{struct __pthread_rwlock_arch_t {   unsigned int __readers;   unsigned int __writers;   unsigned int __wrphase_futex;   unsigned int __writers_futex;   unsigned int __pad3;   unsigned int __pad4;   int __cur_writer;   int __shared;   signed char __rwelision;   unsigned char __pad1[7];   unsigned long int __pad2;   unsigned int __flags; } ;}-> N234
/usr/include/x86_64-linux-gnu/bits/thread-shared-types.h, lines 94-103:	N234 -{struct __pthread_cond_s {   __atomic_wide_counter __wseq;   __atomic_wide_counter __g1_start;   unsigned int __g_refs[2];   unsigned int __g_size[2];   unsigned int __g1_orig_size;   unsigned int __wrefs;   unsigned int __g_signals[2]; } ;}-> N235
/usr/include/x86_64-linux-gnu/bits/thread-shared-types.h, line 105:	N235 -{typedef unsigned int __tss_t;}-> N236
/usr/include/x86_64-linux-gnu/bits/thread-shared-types.h, line 106:	N236 -{typedef unsigned long int __thrd_t;}-> N237
/usr/include/x86_64-linux-gnu/bits/thread-shared-types.h, lines 108-111:	N237 -{struct __anon_type___once_flag {   int __data; } ;}-> N238
/usr/include/x86_64-linux-gnu/bits/thread-shared-types.h, lines 108-111:	N238 -{typedef struct __anon_type___once_flag __once_flag;}-> N239
/usr/include/x86_64-linux-gnu/bits/pthreadtypes.h, line 27:	N239 -{typedef unsigned long int pthread_t;}-> N240
/usr/include/x86_64-linux-gnu/bits/pthreadtypes.h, lines 32-36:	N240 -{union __anon_type_pthread_mutexattr_t {   char __size[4];   int __align; } ;}-> N241
/usr/include/x86_64-linux-gnu/bits/pthreadtypes.h, lines 32-36:	N241 -{typedef union __anon_type_pthread_mutexattr_t pthread_mutexattr_t;}-> N242
/usr/include/x86_64-linux-gnu/bits/pthreadtypes.h, lines 41-45:	N242 -{union __anon_type_pthread_condattr_t {   char __size[4];   int __align; } ;}-> N243
/usr/include/x86_64-linux-gnu/bits/pthreadtypes.h, lines 41-45:	N243 -{typedef union __anon_type_pthread_mutexattr_t pthread_condattr_t;}-> N244
/usr/include/x86_64-linux-gnu/bits/pthreadtypes.h, line 49:	N244 -{typedef unsigned int pthread_key_t;}-> N245
/usr/include/x86_64-linux-gnu/bits/pthreadtypes.h, line 53:	N245 -{typedef int pthread_once_t;}-> N246
/usr/include/x86_64-linux-gnu/bits/pthreadtypes.h, lines 56-60:	N246 -{union pthread_attr_t {   char __size[56];   long int __align; } ;}-> N247
/usr/include/x86_64-linux-gnu/bits/pthreadtypes.h, line 62:	N247 -{typedef union pthread_attr_t pthread_attr_t;}-> N248
/usr/include/x86_64-linux-gnu/bits/pthreadtypes.h, lines 67-72:	N248 -{union __anon_type_pthread_mutex_t {   struct __pthread_mutex_s __data;   char __size[40];   long int __align; } ;}-> N249
/usr/include/x86_64-linux-gnu/bits/pthreadtypes.h, lines 67-72:	N249 -{typedef union __anon_type_pthread_mutex_t pthread_mutex_t;}-> N250
/usr/include/x86_64-linux-gnu/bits/pthreadtypes.h, lines 75-80:	N250 -{union __anon_type_pthread_cond_t {   struct __pthread_cond_s __data;   char __size[48];   long long int __align; } ;}-> N251
/usr/include/x86_64-linux-gnu/bits/pthreadtypes.h, lines 75-80:	N251 -{typedef union __anon_type_pthread_cond_t pthread_cond_t;}-> N252
/usr/include/x86_64-linux-gnu/bits/pthreadtypes.h, lines 86-91:	N252 -{union __anon_type_pthread_rwlock_t {   struct __pthread_rwlock_arch_t __data;   char __size[56];   long int __align; } ;}-> N253
/usr/include/x86_64-linux-gnu/bits/pthreadtypes.h, lines 86-91:	N253 -{typedef union __anon_type_pthread_rwlock_t pthread_rwlock_t;}-> N254
/usr/include/x86_64-linux-gnu/bits/pthreadtypes.h, lines 93-97:	N254 -{union __anon_type_pthread_rwlockattr_t {   char __size[8];   long int __align; } ;}-> N255
/usr/include/x86_64-linux-gnu/bits/pthreadtypes.h, lines 93-97:	N255 -{typedef union __anon_type_pthread_rwlockattr_t pthread_rwlockattr_t;}-> N256
/usr/include/x86_64-linux-gnu/bits/pthreadtypes.h, line 103:	N256 -{typedef volatile int pthread_spinlock_t;}-> N257
/usr/include/x86_64-linux-gnu/bits/pthreadtypes.h, lines 108-112:	N257 -{union __anon_type_pthread_barrier_t {   char __size[32];   long int __align; } ;}-> N258
/usr/include/x86_64-linux-gnu/bits/pthreadtypes.h, lines 108-112:	N258 -{typedef union __anon_type_pthread_barrier_t pthread_barrier_t;}-> N259
/usr/include/x86_64-linux-gnu/bits/pthreadtypes.h, lines 114-118:	N259 -{union __anon_type_pthread_barrierattr_t {   char __size[4];   int __align; } ;}-> N260
/usr/include/x86_64-linux-gnu/bits/pthreadtypes.h, lines 114-118:	N260 -{typedef union __anon_type_pthread_mutexattr_t pthread_barrierattr_t;}-> N261
/usr/include/stdlib.h, line 402:	N261 -{long int random();}-> N262
/usr/include/stdlib.h, line 405:	N262 -{void srandom(unsigned int __seed);}-> N263
/usr/include/stdlib.h, lines 411-412:	N263 -{char *initstate(unsigned int __seed, char *__statebuf, size_t __statelen);}-> N264
/usr/include/stdlib.h, line 416:	N264 -{char *setstate(char *__statebuf);}-> N265
/usr/include/stdlib.h, lines 424-433:	N265 -{struct random_data {   int32_t *fptr;   int32_t *rptr;   int32_t *state;   int rand_type;   int rand_deg;   int rand_sep;   int32_t *end_ptr; } ;}-> N266
/usr/include/stdlib.h, lines 435-436:	N266 -{int random_r(struct random_data *__buf, int32_t *__result);}-> N267
/usr/include/stdlib.h, lines 438-439:	N267 -{int srandom_r(unsigned int __seed, struct random_data *__buf);}-> N268
/usr/include/stdlib.h, lines 441-444:	N268 -{int initstate_r(unsigned int __seed, char *__statebuf, size_t __statelen, struct random_data *__buf);}-> N269
/usr/include/stdlib.h, lines 446-448:	N269 -{int setstate_r(char *__statebuf, struct random_data *__buf);}-> N270
/usr/include/stdlib.h, line 454:	N270 -{int rand();}-> N271
/usr/include/stdlib.h, line 456:	N271 -{void srand(unsigned int __seed);}-> N272
/usr/include/stdlib.h, line 460:	N272 -{int rand_r(unsigned int *__seed);}-> N273
/usr/include/stdlib.h, line 468:	N273 -{double drand48();}-> N274
/usr/include/stdlib.h, line 469:	N274 -{double erand48(unsigned short int __xsubi[3]);}-> N275
/usr/include/stdlib.h, line 472:	N275 -{long int lrand48();}-> N276
/usr/include/stdlib.h, lines 473-474:	N276 -{long int nrand48(unsigned short int __xsubi[3]);}-> N277
/usr/include/stdlib.h, line 477:	N277 -{long int mrand48();}-> N278
/usr/include/stdlib.h, lines 478-479:	N278 -{long int jrand48(unsigned short int __xsubi[3]);}-> N279
/usr/include/stdlib.h, line 482:	N279 -{void srand48(long int __seedval);}-> N280
/usr/include/stdlib.h, lines 483-484:	N280 -{unsigned short int *seed48(unsigned short int __seed16v[3]);}-> N281
/usr/include/stdlib.h, line 485:	N281 -{void lcong48(unsigned short int __param[7]);}-> N282
/usr/include/stdlib.h, lines 491-499:	N282 -{struct drand48_data {   unsigned short int __x[3];   unsigned short int __old_x[3];   unsigned short int __c;   unsigned short int __init;   unsigned long long int __a; } ;}-> N283
/usr/include/stdlib.h, lines 502-503:	N283 -{int drand48_r(struct drand48_data *__buffer, double *__result);}-> N284
/usr/include/stdlib.h, lines 504-506:	N284 -{int erand48_r(unsigned short int __xsubi[3], struct drand48_data *__buffer, double *__result);}-> N285
/usr/include/stdlib.h, lines 509-511:	N285 -{int lrand48_r(struct drand48_data *__buffer, long int *__result);}-> N286
/usr/include/stdlib.h, lines 512-515:	N286 -{int nrand48_r(unsigned short int __xsubi[3], struct drand48_data *__buffer, long int *__result);}-> N287
/usr/include/stdlib.h, lines 518-520:	N287 -{int mrand48_r(struct drand48_data *__buffer, long int *__result);}-> N288
/usr/include/stdlib.h, lines 521-524:	N288 -{int jrand48_r(unsigned short int __xsubi[3], struct drand48_data *__buffer, long int *__result);}-> N289
/usr/include/stdlib.h, lines 527-528:	N289 -{int srand48_r(long int __seedval, struct drand48_data *__buffer);}-> N290
/usr/include/stdlib.h, lines 530-531:	N290 -{int seed48_r(unsigned short int __seed16v[3], struct drand48_data *__buffer);}-> N291
/usr/include/stdlib.h, lines 533-535:	N291 -{int lcong48_r(unsigned short int __param[7], struct drand48_data *__buffer);}-> N292
/usr/include/stdlib.h, lines 540-541:	N292 -{void *malloc(size_t __size);}-> N293
/usr/include/stdlib.h, lines 543-544:	N293 -{void *calloc(size_t __nmemb, size_t __size);}-> N294
/usr/include/stdlib.h, lines 551-552:	N294 -{void *realloc(void *__ptr, size_t __size);}-> N295
/usr/include/stdlib.h, line 555:	N295 -{void free(void *__ptr);}-> N296
/usr/include/stdlib.h, lines 563-566:	N296 -{void *reallocarray(void *__ptr, size_t __nmemb, size_t __size);}-> N297
/usr/include/alloca.h, line 32:	N297 -{void *alloca(size_t __size);}-> N298
/usr/include/stdlib.h, lines 580-581:	N298 -{void *valloc(size_t __size);}-> N299
/usr/include/stdlib.h, lines 586-587:	N299 -{int posix_memalign(void **__memptr, size_t __alignment, size_t __size);}-> N300
/usr/include/stdlib.h, lines 592-594:	N300 -{void *aligned_alloc(size_t __alignment, size_t __size);}-> N301
/usr/include/stdlib.h, line 598:	N301 -{void abort();}-> N302
/usr/include/stdlib.h, line 602:	N302 -{int atexit(void (*__func)());}-> N303
/usr/include/stdlib.h, line 610:	N303 -{int at_quick_exit(void (*__func)());}-> N304
/usr/include/stdlib.h, lines 617-618:	N304 -{int on_exit(void (*__func)(int __status, void *__arg), void *__arg);}-> N305
/usr/include/stdlib.h, line 624:	N305 -{void exit(int __status);}-> N306
/usr/include/stdlib.h, line 630:	N306 -{void quick_exit(int __status);}-> N307
/usr/include/stdlib.h, line 636:	N307 -{void _Exit(int __status);}-> N308
/usr/include/stdlib.h, line 641:	N308 -{char *getenv(const char *__name);}-> N309
/usr/include/stdlib.h, line 654:	N309 -{int putenv(char *__string);}-> N310
/usr/include/stdlib.h, lines 660-661:	N310 -{int setenv(const char *__name, const char *__value, int __replace);}-> N311
/usr/include/stdlib.h, line 664:	N311 -{int unsetenv(const char *__name);}-> N312
/usr/include/stdlib.h, line 671:	N312 -{int clearenv();}-> N313
/usr/include/stdlib.h, line 682:	N313 -{char *mktemp(char *__template);}-> N314
/usr/include/stdlib.h, line 695:	N314 -{int mkstemp(char *__template);}-> N315
/usr/include/stdlib.h, line 717:	N315 -{int mkstemps(char *__template, int __suffixlen);}-> N316
/usr/include/stdlib.h, line 738:	N316 -{char *mkdtemp(char *__template);}-> N317
/usr/include/stdlib.h, line 791:	N317 -{int system(const char *__command);}-> N318
/usr/include/stdlib.h, lines 808-809:	N318 -{char *realpath(const char *__name, char *__resolved);}-> N319
/usr/include/stdlib.h, line 816:	N319 -{typedef int (*__compar_fn_t)(const void *, const void *);}-> N320
/usr/include/stdlib.h, lines 828-830:	N320 -{void *bsearch(const void *__key, const void *__base, size_t __nmemb, size_t __size, __compar_fn_t __compar);}-> N321
/usr/include/stdlib.h, lines 838-839:	N321 -{void qsort(void *__base, size_t __nmemb, size_t __size, __compar_fn_t __compar);}-> N322
/usr/include/stdlib.h, line 848:	N322 -{int abs(int __x);}-> N323
/usr/include/stdlib.h, line 849:	N323 -{long int labs(long int __x);}-> N324
/usr/include/stdlib.h, lines 852-853:	N324 -{long long int llabs(long long int __x);}-> N325
/usr/include/stdlib.h, lines 860-861:	N325 -{div_t div(int __numer, int __denom);}-> N326
/usr/include/stdlib.h, lines 862-863:	N326 -{ldiv_t ldiv(long int __numer, long int __denom);}-> N327
/usr/include/stdlib.h, lines 866-868:	N327 -{lldiv_t lldiv(long long int __numer, long long int __denom);}-> N328
/usr/include/stdlib.h, lines 880-881:	N328 -{char *ecvt(double __value, int __ndigit, int *__decpt, int *__sign);}-> N329
/usr/include/stdlib.h, lines 886-887:	N329 -{char *fcvt(double __value, int __ndigit, int *__decpt, int *__sign);}-> N330
/usr/include/stdlib.h, lines 892-893:	N330 -{char *gcvt(double __value, int __ndigit, char *__buf);}-> N331
/usr/include/stdlib.h, lines 898-900:	N331 -{char *qecvt(long double __value, int __ndigit, int *__decpt, int *__sign);}-> N332
/usr/include/stdlib.h, lines 901-903:	N332 -{char *qfcvt(long double __value, int __ndigit, int *__decpt, int *__sign);}-> N333
/usr/include/stdlib.h, lines 904-905:	N333 -{char *qgcvt(long double __value, int __ndigit, char *__buf);}-> N334
/usr/include/stdlib.h, lines 910-912:	N334 -{int ecvt_r(double __value, int __ndigit, int *__decpt, int *__sign, char *__buf, size_t __len);}-> N335
/usr/include/stdlib.h, lines 913-915:	N335 -{int fcvt_r(double __value, int __ndigit, int *__decpt, int *__sign, char *__buf, size_t __len);}-> N336
/usr/include/stdlib.h, lines 917-920:	N336 -{int qecvt_r(long double __value, int __ndigit, int *__decpt, int *__sign, char *__buf, size_t __len);}-> N337
/usr/include/stdlib.h, lines 921-924:	N337 -{int qfcvt_r(long double __value, int __ndigit, int *__decpt, int *__sign, char *__buf, size_t __len);}-> N338
/usr/include/stdlib.h, line 930:	N338 -{int mblen(const char *__s, size_t __n);}-> N339
/usr/include/stdlib.h, lines 933-934:	N339 -{int mbtowc(wchar_t *__pwc, const char *__s, size_t __n);}-> N340
/usr/include/stdlib.h, line 937:	N340 -{int wctomb(char *__s, wchar_t __wchar);}-> N341
/usr/include/stdlib.h, lines 941-943:	N341 -{size_t mbstowcs(wchar_t *__pwcs, const char *__s, size_t __n);}-> N342
/usr/include/stdlib.h, lines 945-949:	N342 -{size_t wcstombs(char *__s, const wchar_t *__pwcs, size_t __n);}-> N343
/usr/include/stdlib.h, line 956:	N343 -{int rpmatch(const char *__response);}-> N344
/usr/include/stdlib.h, lines 967-970:	N344 -{int getsubopt(char **__optionp, char * const *__tokens, char **__valuep);}-> N345
/usr/include/stdlib.h, lines 1013-1014:	N345 -{int getloadavg(double __loadavg[], int __nelem);}-> N346
line 6:	N346 -{jmp_buf my_jump_buffer = {  };}-> N347
lines 9-12:	N347 -{void foo(int count);}-> N348
lines 15-22:	N348 -{int main();}-> N349
lines 25-28:	N349 -{void longjmp(jmp_buf env, int val);}-> N350
lines 31-34:	N350 -{int _setjmp(jmp_buf env);}-> N351
lines 37-40:	N351 -{void __assert_func(const char *file, int line, const char *func, const char *failedexpr);}-> N352
none:	N352 -{Function start dummy edge}-> N37
line 16:	N37 -{int count;}-> N38
	count == 0;
lines 17-20:	N38 -{int __CPAchecker_TMP_0;}-> N41
lines 17-20:	N41 -{_setjmp(my_jump_buffer)}-> N60
none:	N60 -{Function start dummy edge}-> N61
none:	N61 -{default return}-> N59
lines 17-20:	N59 -{Return edge from _setjmp to main: __CPAchecker_TMP_0 = _setjmp(my_jump_buffer);}-> N42
line 17:	N42 -{[__CPAchecker_TMP_0 == 0]}-> N40
	__CPAchecker_TMP_0 == 0;
	__CPAchecker_TMP_0 == 0;
line 18:	N40 -{int __CPAchecker_TMP_3;}-> N43
line 18:	N43 -{[!(count != 0)]}-> N45
	count == 0;
	count == 0;
line 18:	N45 -{__CPAchecker_TMP_3 = 0;}-> N47
line 18:	N47 -{4UL;}-> N48
line 18:	N48 -{[!(count != 0)]}-> N51
	count == 0;
	count == 0;
line 18:	N51 -{__assert_fail("count != 0 && \"Assertion failed: count should not be 0\"", "/home/zyl/biVerify/CPA_DATA2/C/F/llmfix/realOutput/iterationTry/68-longjmp_04-counting-local_unknown_1_neg_process_dc_iter1.c", 18, "__PRETTY_FUNCTION__");}-> N353
